L = 30;
N = 28;
W = [ 5, 5, 8, 8, 13, 11, 11, 5, 5, 3, 3, 11, 11, 4, 4, 7, 5, 5, 3, 3, 4, 4, 2, 2, 5, 5, 3, 3 ];
H = [ 7, 14, 14, 4, 21, 7, 14, 14, 4, 18, 21, 17, 4, 7, 5, 6, 18, 3, 7, 5, 18, 3, 12, 6, 18, 21, 17, 4 ];
H_LB = 60;
H_UB = 69;